%% This data file has been updates with the current variables and some explanations but currently does not work: an empty plate cannot be generated.

%% Plate dimentions: (any plate dimentions can be used)
% A 384-well plate
num_rows = 16; %% height
num_cols = 24; %% width

% A 96-well plate)
%numrows = 8; %% height
%numcols = 12; %% width

allow_empty_wells = true; % Switch to false if you want to make sure you have enough compounds, combinations and controls to fill in all plates.

vertical_cell_lines	 = 1;
horizontal_cell_lines	 = 1;
size_empty_edge = 1;

concentrations_on_different_rows = false; %Spread the concentrations of a given replica across different rows
concentrations_on_different_columns = false; %Spread the concentrations of a given replica across different columns

% Restriction: replicates_on_different_plates /\ replicates_on_same_plate == false
replicates_on_different_plates = false;
replicates_on_same_plate = true;

%%% Compounds %%%

%% number of drugs/compounds
compounds = 8;

% Number of replicates per compounds in all of its concentrations.
compound_replicates	 = [10,10,10,10,10,10,10,10];

% Number of concentrations for each compound
compound_concentrations	 = [3,3,3,3,3,3,3,3];

% Name of each compound. Used in the .csv output
% Names should appear between quotation marks and separated by commas
% For example compound_names = ["a", "b", "c", "d"];
compound_names = ["colo-002","colo-009","colo-020","colo-028","colo-029","colo-040","colo-041","colo-044"];


% Name of each concentration for the compounds. Used in the .csv output
% Names should appear between quotation marks and separated by commas
% For example compound_concentration_names = [|"0.1", "30", "H"|"0.1", "30", "H"|]; % 3 concentrations for 2 compounds
compound_concentration_names =
[|"1","3","10"|"1","3","10"|"1","3","10"|"1","3","10"|"1","3","10"|"1","3","10"|"1","3","10"|"1","3","10"|];

% Latex syntax used for indicating the concentration of each compound. Can be left as in the example.
compound_concentration_indicators = ["" | i in 1..max(compound_concentrations)];


%%% Combinations %%% 
% DEPRECATED! Do not modify.
combinations = 0;
combination_concentrations	 = 0; 
combination_names = []; 
combination_concentration_names = [];



%%% Controls %%%

num_controls = 4;

% Number of concentrations for each controls. Must have num_controls elements
control_concentrations = [1,1,1,1];


%% The number of replicates for each control.
%% control_replicates must have num_controls elements
control_replicates = [38,10,10,10];


% Name of each control. Used in the .csv output
control_names = ["dmso","ref-001","ref-002","ref-003"];

% Name of each concentration used in the controls. Used in the .csv output
control_concentration_names = [|"0.1"|"2.5"|"2.5"|"2.5"|];

 